SO4 adsorbed on model Cu2O surface
1.0
  10.0000000000   0.0000000000   0.0000000000
   0.0000000000  10.0000000000   0.0000000000
   0.0000000000   0.0000000000  20.0000000000
Cu O S
4 7 1
Direct
  0.40000000000000  0.40000000000000  0.40000000000000
  0.60000000000000  0.40000000000000  0.40000000000000
  0.40000000000000  0.60000000000000  0.40000000000000
  0.60000000000000  0.60000000000000  0.40000000000000
  0.40000000000000  0.50000000000000  0.35000000000000
  0.60000000000000  0.50000000000000  0.35000000000000
  0.50000000000000  0.50000000000000  0.30000000000000
  0.42000000000000  0.50000000000000  0.44500000000000
  0.58000000000000  0.50000000000000  0.44500000000000
  0.50000000000000  0.64500000000000  0.52000000000000
  0.50000000000000  0.35500000000000  0.52000000000000
  0.50000000000000  0.50000000000000  0.50000000000000
